<number of tasks>
20

<cycle time>
1000

<order strength>
0,5


<task times>
1 662
2 495
3 438
4 466
5 458
6 358
7 650
8 307
9 418
10 624
11 409
12 470
13 629
14 494
15 642
16 411
17 459
18 549
19 421
20 362

<precedence relations>
1,10
2,7
2,11
3,5
3,6
4,11
5,9
5,11
6,8
6,9
6,10
7,8
8,18
9,14
10,12
10,13
11,15
12,15
13,14
14,16
14,18
14,19
14,20
15,17
15,18
15,20

<end>
